11
[[-1, 89, 5, 3, 216, 78, 108, 195, 234, 216, 175],[89, -1, 94, 92, 305, 11, 19, 106, 145, 305, 264],[5, 94, -1, 2, 211, 83, 113, 200, 239, 211, 170],[3, 92, 2, -1, 213, 81, 111, 198, 237, 213, 172],[216, 305, 211, 213, -1, 294, 324, 411, 450, 0, 41],[78, 11, 83, 81, 294, -1, 30, 117, 156, 294, 253],[108, 19, 113, 111, 324, 30, -1, 87, 126, 324, 283],[195, 106, 200, 198, 411, 117, 87, -1, 39, 411, 370],[234, 145, 239, 237, 450, 156, 126, 39, -1, 450, 409],[216, 305, 211, 213, 0, 294, 324, 411, 450, -1, 41],[175, 264, 170, 172, 41, 253, 283, 370, 409, 41, -1]]